0	149	201	0	200
1	395	200	0	200
2	174	318	0	200
3	463	320	0	200
4	179	316	0	200
5	389	75	0	200
6	25	249	0	200
7	77	231	0	200
8	398	246	0	200
9	274	370	0	200
10	313	135	0	200
11	482	361	0	200
12	150	320	0	200
13	65	110	0	200
14	495	36	0	200
15	374	240	0	200
16	219	394	0	200
17	168	131	0	200
18	415	233	0	200
19	272	475	0	200
20	41	54	0	200
21	56	462	0	200
22	469	227	0	200
23	124	42	0	200
24	279	20	0	200
